10	5
0	4	2	4	3	1
1	2	6	7
2	1	9
3	2	5	9
4	3	7	6	9
5	2	7	6
6	2	10	8
7	1	8
8	1	11
9	1	11
10	1	11
11	0
0	0	0	0	0	0	0
1	8	5	1	4	2	2
2	6	5	4	3	5	4
3	8	4	5	1	4	1
4	1	2	4	2	3	4
5	5	5	1	4	1	1
6	6	3	1	2	2	1
7	4	1	2	5	4	4
8	3	1	4	4	2	5
9	10	1	3	1	4	5
10	10	3	1	2	1	5
11	0	0	0	0	0	0
5	5	5	5	5
